13,0	0,0	9,5	11,8	0,0	0,0	0,0	0,0	0,0	14,5
19,2	19,7	0,0	16,8	6,5	0,0	0,0	6,5	0,0	0,0
0,0	0,0	11,0	0,0	16,8	11,0	0,0	0,0	18,2	0,0
10,8	0,0	14,0	0,0	0,0	0,0	16,1	0,0	0,0	0,0
0,0	7,4	0,0	13,8	6,6	0,0	0,0	17,7	0,0	0,0
0,0	12,8	12,1	0,0	16,5	10,2	0,0	0,0	16,4	0,0
0,0	8,4	0,0	9,7	0,0	0,0	11,1	0,0	0,0	6,1
11,9	0,0	19,2	0,0	0,0	0,0	0,0	0,0	0,0	19,1
0,0	18,2	0,0	14,4	16,0	0,0	0,0	9,4	0,0	0,0
0,0	0,0	14,7	0,0	0,0	6,0	19,9	0,0	0,0	9,9
0,0	8,6	0,0	0,0	13,2	0,0	14,7	0,0	14,7	14,0
15,5	0,0	8,0	0,0	10,8	0,0	9,6	9,8	16,8	0,0
0,0	14,3	0,0	0,0	0,0	12,6	0,0	7,1	11,5	19,1
8,0	5,2	5,6	0,0	0,0	10,0	0,0	16,9	9,9	0,0
10,1	0,0	6,6	0,0	11,0	16,5	11,8	7,3	0,0	0,0
0,0	7,1	0,0	5,3	0,0	14,6	0,0	7,9	0,0	0,0
9,5	0,0	18,3	6,2	7,8	0,0	0,0	11,5	0,0	0,0
0,0	0,0	16,7	0,0	0,0	14,1	7,5	0,0	12,6	15,1
19,1	0,0	0,0	18,2	8,4	11,5	18,5	6,2	0,0	9,7
0,0	9,1	0,0	7,2	0,0	0,0	19,4	0,0	15,3	10,1
									
4,6	3,5	3,0	4,6	4,1	4,9	4,4	3,8	2,9	4,5
